Problem:    
Rows:       203
Columns:    85 (70 integer, 70 binary)
Non-zeros:  690
Status:     INTEGER OPTIMAL
Objective:  value = 174.419531 (MINimum)

   No.   Row name        Activity     Lower bound   Upper bound
------ ------------    ------------- ------------- -------------
     1 r.5                   1174.42             0               
     2 r.6                  -955.954      -964.355               
     3 r.7                    174.42             0               
     4 r.8                   -750.29      -962.303               
     5 r.9                   1174.42             0               
     6 r.10                 -920.481      -964.527               
     7 r.11                   174.42             0               
     8 r.12                 -787.987      -962.407               
     9 r.13                  1174.42             0               
    10 r.14                 -991.599      -997.346               
    11 r.15                   174.42             0               
    12 r.16                  46.1279      -995.182               
    13 r.17                  1174.42             0               
    14 r.18                 -994.252      -994.252               
    15 r.19                   174.42             0               
    16 r.20                 -742.817      -992.527               
    17 r.21                   174.42             0               
    18 r.22                        0      -983.413               
    19 r.23                  1174.42             0               
    20 r.24                 -935.234      -981.362               
    21 r.25                  1174.42             0               
    22 r.26                  -825.58      -939.805               
    23 r.27                   174.42             0               
    24 r.28                  46.1279       -958.12               
    25 r.29                   174.42             0               
    26 r.30                        0       -941.73               
    27 r.31                  1174.42             0               
    28 r.32                  -825.58      -959.757               
    29 r.33                        1             1             = 
    30 r.34                        1             1             = 
    31 r.35                        1             1             = 
    32 r.36                        1             1             = 
    33 r.37                        1             1             = 
    34 r.38                        1             1             = 
    35 r.39                        1             1             = 
    36 r.40                   35.473        35.473               
    37 r.41                  -35.473      -964.355               
    38 r.42                  962.303       37.5934               
    39 r.43                 -962.303      -962.303               
    40 r.44                  964.355       2.65353               
    41 r.45                 -964.355      -964.355               
    42 r.46                  796.418        4.8181               
    43 r.47                 -796.418      -962.303               
    44 r.48                  961.701       5.74764               
    45 r.49                 -961.701      -964.355               
    46 r.50                  7.47341       7.47341               
    47 r.51                 -7.47341      -962.303               
    48 r.52                  955.954       16.5869               
    49 r.53                 -955.954      -964.355               
    50 r.54                  815.056        18.638               
    51 r.55                 -815.056      -962.303               
    52 r.56                 -869.627        -905.1               
    53 r.57                  2.08164       -888.71               
    54 r.58                 -75.2904        -905.1               
    55 r.59                  796.418       -888.71               
    56 r.60                 -44.0463      -907.025               
    57 r.61                 -869.627      -890.346               
    58 r.62                   750.29      -907.025               
    59 r.63                 -75.2904      -890.346               
    60 r.64                  964.527       35.6451               
    61 r.65                 -964.527      -964.527               
    62 r.66                   37.697        37.697               
    63 r.67                  -37.697      -962.407               
    64 r.68                  928.882       2.65353               
    65 r.69                 -928.882      -964.527               
    66 r.70                  834.115        4.8181               
    67 r.71                 -834.115      -962.407               
    68 r.72                  926.228       5.74764               
    69 r.73                 -926.228      -964.527               
    70 r.74                  45.1704       7.47341               
    71 r.75                 -45.1704      -962.407               
    72 r.76                  920.481       16.5869               
    73 r.77                 -920.481      -964.527               
    74 r.78                  852.753        18.638               
    75 r.79                 -852.753      -962.407               
    76 r.80                   -905.1        -905.1               
    77 r.81                 -33.3914       -888.71               
    78 r.82                 -37.5934        -905.1               
    79 r.83                  834.115       -888.71               
    80 r.84                  920.481       58.2697               
    81 r.85                 -920.481      -964.527               
    82 r.86                  962.407       40.2433               
    83 r.87                 -962.407      -962.407               
    84 r.88                  35.6451       35.6451               
    85 r.89                 -35.6451      -997.346               
    86 r.90                  203.582        37.697               
    87 r.91                 -203.582      -995.182               
    88 r.92                  71.1181        35.473               
    89 r.93                 -71.1181      -997.346               
    90 r.94                  165.885       37.5934               
    91 r.95                 -165.885      -995.182               
    92 r.96                  997.346       5.74764               
    93 r.97                 -997.346      -997.346               
    94 r.98                  211.055       7.47341               
    95 r.99                 -211.055      -995.182               
    96 r.100                 991.599       16.5869               
    97 r.101                -991.599      -997.346               
    98 r.102                  18.638        18.638               
    99 r.103                 -18.638      -995.182               
   100 r.104                -833.982        -905.1               
   101 r.105                 37.7268       -888.71               
   102 r.106                -871.708        -905.1               
   103 r.107                       0       -888.71               
   104 r.108                -8.40116      -907.025               
   105 r.109                -833.982      -890.346               
   106 r.110                -46.1279      -907.025               
   107 r.111                -871.708      -890.346               
   108 r.112                 38.2986       35.6451               
   109 r.113                -38.2986      -994.252               
   110 r.114                 992.527        37.697               
   111 r.115                -992.527      -992.527               
   112 r.116                 73.7716        35.473               
   113 r.117                -73.7716      -994.252               
   114 r.118                  954.83       37.5934               
   115 r.119                 -954.83      -992.527               
   116 r.120                 2.65352       2.65353               
   117 r.121                -2.65352      -994.252               
   118 r.122                 788.945        4.8181               
   119 r.123                -788.945      -992.527               
   120 r.124                 994.252       16.5869               
   121 r.125                -994.252      -994.252               
   122 r.126                 807.583        18.638               
   123 r.127                -807.583      -992.527               
   124 r.128                -831.328        -905.1               
   125 r.129                 40.3803       -888.71               
   126 r.130                -82.7638        -905.1               
   127 r.131                 788.945       -888.71               
   128 r.132                 994.252       58.2697               
   129 r.133                -994.252      -994.252               
   130 r.134                 917.236       40.2433               
   131 r.135                -917.236      -992.527               
   132 r.136                 44.0463       35.6451               
   133 r.137                -44.0463      -983.413               
   134 r.138                 184.944        37.697               
   135 r.139                -184.944      -981.362               
   136 r.140                 79.5193        35.473               
   137 r.141                -79.5193      -983.413               
   138 r.142                 147.247       37.5934               
   139 r.143                -147.247      -981.362               
   140 r.144                 8.40116       2.65353               
   141 r.145                -8.40116      -983.413               
   142 r.146                 981.362        4.8181               
   143 r.147                -981.362      -981.362               
   144 r.148                 5.74764       5.74764               
   145 r.149                -5.74764      -983.413               
   146 r.150                 192.417       7.47341               
   147 r.151                -192.417      -981.362               
   148 r.152                  174.42       60.1951               
   149 r.153                 -174.42      -983.413               
   150 r.154                 981.362       41.8801               
   151 r.155                -981.362      -981.362               
   152 r.156                       0      -907.025               
   153 r.157                 -825.58      -890.346               
   154 r.158                -64.7659      -907.025               
   155 r.159                -890.346      -890.346               
   156 r.160                -869.627        -905.1               
   157 r.161                 2.08164       -888.71               
   158 r.162                -75.2904        -905.1               
   159 r.163                 796.418       -888.71               
   160 r.164                  -905.1        -905.1               
   161 r.165                -33.3914       -888.71               
   162 r.166                -37.5934        -905.1               
   163 r.167                 834.115       -888.71               
   164 r.168                -833.982        -905.1               
   165 r.169                 37.7268       -888.71               
   166 r.170                -871.708        -905.1               
   167 r.171                       0       -888.71               
   168 r.172                -831.328        -905.1               
   169 r.173                 40.3803       -888.71               
   170 r.174                -82.7638        -905.1               
   171 r.175                 788.945       -888.71               
   172 r.176                  825.58       16.5869               
   173 r.177                 -825.58      -939.805               
   174 r.178                  18.638        18.638               
   175 r.179                 -18.638       -958.12               
   176 r.180                  825.58       58.2697               
   177 r.181                 -825.58      -939.805               
   178 r.182                 128.292       40.2433               
   179 r.183                -128.292       -958.12               
   180 r.184                -44.0463      -907.025               
   181 r.185                -869.627      -890.346               
   182 r.186                  750.29      -907.025               
   183 r.187                -75.2904      -890.346               
   184 r.188                 79.5193        35.473               
   185 r.189                -79.5193       -941.73               
   186 r.190                 37.5934       37.5934               
   187 r.191                -37.5934      -959.757               
   188 r.192                -8.40116      -907.025               
   189 r.193                -833.982      -890.346               
   190 r.194                -46.1279      -907.025               
   191 r.195                -871.708      -890.346               
   192 r.196                 5.74764       5.74764               
   193 r.197                -5.74764       -941.73               
   194 r.198                 82.7638       7.47341               
   195 r.199                -82.7638      -959.757               
   196 r.200                       0      -907.025               
   197 r.201                 -825.58      -890.346               
   198 r.202                -64.7659      -907.025               
   199 r.203                -890.346      -890.346               
   200 r.204                  174.42       60.1951               
   201 r.205                 -174.42       -941.73               
   202 r.206                 871.708       41.8801               
   203 r.207                -871.708      -959.757               

   No. Column name       Activity     Lower bound   Upper bound
------ ------------    ------------- ------------- -------------
     1 tt                     174.42             0               
     2 s_1_1        *              1             0             1 
     3 t_1_1                 130.373             0               
     4 s_1_7        *              1             0             1 
     5 s_2_1        *              0             0             1 
     6 t_2_1                  924.71             0               
     7 s_2_7        *              0             0             1 
     8 s_1_2        *              1             0             1 
     9 t_1_2                 94.9003             0               
    10 s_2_2        *              0             0             1 
    11 t_2_2                 962.407             0               
    12 s_1_3        *              1             0             1 
    13 t_1_3                 166.018             0               
    14 s_2_3        *              0             0             1 
    15 t_2_3                 128.292             0               
    16 s_1_4        *              1             0             1 
    17 t_1_4                 168.672             0               
    18 s_2_4        *              0             0             1 
    19 t_2_4                 917.236             0               
    20 s_1_5        *              0             0             1 
    21 t_1_5                  174.42             0               
    22 s_1_8        *              0             0             1 
    23 s_2_5        *              1             0             1 
    24 t_2_5                 109.654             0               
    25 s_2_8        *              1             0             1 
    26 t_1_7                       0             0               
    27 t_2_7                 128.292             0               
    28 t_1_8                  174.42             0               
    29 t_2_8                       0             0               
    30 u_1_1_2      *              0             0             1 
    31 u_2_1_2      *              1             0             1 
    32 u_1_1_3      *              1             0             1 
    33 u_2_1_3      *              0             0             1 
    34 u_1_1_4      *              1             0             1 
    35 u_2_1_4      *              0             0             1 
    36 u_1_1_5      *              1             0             1 
    37 u_2_1_5      *              0             0             1 
    38 u_1_2_1      *              1             0             1 
    39 u_2_2_1      *              0             0             1 
    40 u_1_2_3      *              1             0             1 
    41 u_2_2_3      *              0             0             1 
    42 u_1_2_4      *              1             0             1 
    43 u_2_2_4      *              0             0             1 
    44 u_1_2_5      *              1             0             1 
    45 u_2_2_5      *              0             0             1 
    46 u_1_2_8      *              1             0             1 
    47 u_2_2_8      *              0             0             1 
    48 u_1_3_1      *              0             0             1 
    49 u_2_3_1      *              1             0             1 
    50 u_1_3_2      *              0             0             1 
    51 u_2_3_2      *              1             0             1 
    52 u_1_3_4      *              1             0             1 
    53 u_2_3_4      *              1             0             1 
    54 u_1_3_5      *              1             0             1 
    55 u_2_3_5      *              0             0             1 
    56 u_1_4_1      *              0             0             1 
    57 u_2_4_1      *              1             0             1 
    58 u_1_4_2      *              0             0             1 
    59 u_2_4_2      *              1             0             1 
    60 u_1_4_3      *              0             0             1 
    61 u_2_4_3      *              0             0             1 
    62 u_1_4_5      *              1             0             1 
    63 u_2_4_5      *              0             0             1 
    64 u_1_4_8      *              1             0             1 
    65 u_2_4_8      *              0             0             1 
    66 u_1_5_1      *              0             0             1 
    67 u_2_5_1      *              1             0             1 
    68 u_1_5_2      *              0             0             1 
    69 u_2_5_2      *              1             0             1 
    70 u_1_5_3      *              0             0             1 
    71 u_2_5_3      *              1             0             1 
    72 u_1_5_4      *              0             0             1 
    73 u_2_5_4      *              1             0             1 
    74 u_1_5_7      *              0             0             1 
    75 u_2_5_7      *              1             0             1 
    76 u_1_7_5      *              1             0             1 
    77 u_2_7_5      *              0             0             1 
    78 u_1_7_8      *              1             0             1 
    79 u_2_7_8      *              0             0             1 
    80 u_1_8_2      *              0             0             1 
    81 u_2_8_2      *              1             0             1 
    82 u_1_8_4      *              0             0             1 
    83 u_2_8_4      *              1             0             1 
    84 u_1_8_7      *              0             0             1 
    85 u_2_8_7      *              1             0             1 

Integer feasibility conditions:

KKT.PE: max.abs.err = 2.27e-13 on row 86
        max.rel.err = 1.01e-16 on row 86
        High quality

KKT.PB: max.abs.err = 1.14e-13 on row 111
        max.rel.err = 1.51e-14 on row 116
        High quality

End of output
